language ESSENCE' 1.0
$ loaded file: carseqdata/csplib-instance-12
letting numcars=200
letting numclasses=24
letting numoptions=5
letting optMax=[1, 2, 1, 2, 1]
letting windowSize=[2, 3, 3, 5, 5]
letting numberPerClass=[1, 2, 48, 1, 1, 1, 6, 1, 4, 32, 1, 58, 1, 4, 4, 2, 6, 12, 1, 1, 3, 1, 1, 8]
letting optionsRequired=[[1, 1, 1, 1, 0], [1, 0, 0, 0, 1], [0, 0, 0, 1, 0], [1, 1, 1, 0, 1], [0, 1, 0, 1, 1], [1, 1, 0, 1, 0], [0, 1, 0, 1, 0], [0, 0, 1, 0, 1], [1, 0, 0, 1, 0], [0, 0, 1, 0, 0], [1, 1, 1, 0, 0], [0, 1, 0, 0, 0], [0, 0, 1, 1, 0], [1, 0, 1, 0, 0], [0, 1, 1, 0, 0], [1, 1, 0, 0, 1], [0, 0, 0, 0, 1], [1, 0, 0, 0, 0], [1, 0, 0, 1, 1], [0, 1, 0, 0, 1], [0, 1, 1, 1, 0], [0, 0, 0, 1, 1], [0, 1, 1, 1, 1], [1, 1, 0, 0, 0]]
